
Gurobi 12.0.2 (win64) logging started Thu Jun  5 10:50:27 2025

Set parameter LogFile to value "C:\Ioana\_uni\honours\slp\algorithm\Main_files\results\others\prox_tubules\Task_028_Sample001_irr_gurobi.log"
Gurobi Optimizer version 12.0.2 build v12.0.2rc0 (win64 - Windows 11.0 (26100.2))

CPU model: Intel(R) Core(TM) Ultra 5 125H, instruction set [SSE2|AVX|AVX2]
Thread count: 14 physical cores, 18 logical processors, using up to 18 threads

Non-default parameters:
TimeLimit  2200

Optimize a model with 47658 rows, 34811 columns and 147858 nonzeros
Model fingerprint: 0x89d11f78
Variable types: 17417 continuous, 17394 integer (17394 binary)
Coefficient statistics:
  Matrix range     [1e-04, 8e+04]
  Objective range  [1e-04, 1e+01]
  Bounds range     [1e+00, 1e+03]
  RHS range        [1e+00, 1e+00]
Presolve removed 31200 rows and 21850 columns
Presolve time: 0.34s
Presolved: 16458 rows, 12961 columns, 54692 nonzeros
Variable types: 6413 continuous, 6548 integer (6548 binary)

Root relaxation: objective 1.002668e+00, 1556 iterations, 0.10 seconds (0.18 work units)

    Nodes    |    Current Node    |     Objective Bounds      |     Work
 Expl Unexpl |  Obj  Depth IntInf | Incumbent    BestBd   Gap | It/Node Time

     0     0    1.00267    0    5          -    1.00267      -     -    0s
H    0     0                       1.9973235    1.00267  49.8%     -    0s
     0     0    1.03068    0    7    1.99732    1.03068  48.4%     -    0s
     0     0    1.89356    0    6    1.99732    1.89356  5.19%     -    1s
     0     0    1.89362    0    6    1.99732    1.89362  5.19%     -    1s
     0     0    1.95557    0   12    1.99732    1.95557  2.09%     -    1s
     0     0    1.95557    0    1    1.99732    1.95557  2.09%     -    1s

Cutting planes:
  MIR: 3
  Flow cover: 1
  Inf proof: 1

Explored 1 nodes (3883 simplex iterations) in 1.29 seconds (1.39 work units)
Thread count was 18 (of 18 available processors)

Solution count 1: 1.99732 

Optimal solution found (tolerance 1.00e-04)
Best objective 1.997323523085e+00, best bound 1.997323523085e+00, gap 0.0000%
